1138.0 13332.0 3156.0 
1143.0 13295.0 3070.0 
1196.0 13116.0 2827.0 
1196.0 13116.0 2827.0 
1161.0 13316.0 3009.0 
1200.0 13115.0 2775.0 
1197.0 13118.0 2822.0 
1212.0 13053.0 2713.0 
1200.0 13136.0 2762.0 
1138.0 13356.0 3118.0 
1212.0 13053.0 2713.0 
1212.0 13053.0 2713.0 
1178.0 13147.0 3151.0 
1143.0 13295.0 3070.0 
1143.0 13248.0 3137.0 
1162.0 13334.0 3003.0 
1196.0 13116.0 2827.0 
1198.0 13142.0 2774.0 
1177.0 13250.0 2912.0 
1179.0 13032.0 2894.0 
1186.0 13186.0 2833.0 
1190.0 13081.0 2829.0 
1212.0 13053.0 2713.0 
1168.0 13287.0 2909.0 
1156.0 13274.0 3014.0 
1171.0 13227.0 3118.0 
